WARNING: for repeatability, setting FPU to use double precision
============================[ Problem Statistics ]=============================
|                                                                             |
|  Number of variables:            50                                         |
|  Number of clauses:             218                                         |
|  Parse time:                   0.00 s                                       |
|                                                                             |
============================[ Search Statistics ]==============================
| Conflicts |          ORIGINAL         |          LEARNT          | Progress |
|           |    Vars  Clauses Literals |    Limit  Clauses Lit/Cl |          |
===============================================================================
===============================================================================
restarts              : 1
conflicts             : 60             (39037 /sec)
decisions             : 79             (0.00 % random) (51399 /sec)
propagations          : 775            (504229 /sec)
conflict literals     : 223            (22.03 % deleted)
Memory used           : 20.00 MB
CPU time              : 0.001537 s

SATISFIABLE
